Name: Roma1-IIsem-2008
Courses: 50
Rooms: 8
Days: 5
Periods_per_day: 11
Curricula: 9
Min_Max_Daily_Lectures: 3 6
UnavailabilityConstraints: 1102
RoomConstraints: 52

COURSES:
c0201 t000 6 3 0 1
c0202 t001 4 2 0 1
c0203 t002 4 2 0 1
c0204 t003 4 2 0 1
c0205 t003 4 2 0 1
c0206 t004 6 3 0 1
c0207 t005 4 2 0 1
c0208 t006 4 2 0 1
c0209 t007 4 2 0 1
c0210 t008 4 2 0 1
c0211 t009 6 3 0 1
c0212 t010 4 2 0 1
c0213 t011 4 2 0 1
c0214 t012 4 2 0 1
c0215 t013 4 2 0 1
c0216 t014 4 2 0 1
c0217 t015 4 2 0 1
c0218 t016 4 2 0 1
c0219 t017 4 2 0 1
c0220 t018 4 2 0 1
c0221 t019 4 2 0 1
c0222 t020 4 2 0 1
c0223 t015 4 2 0 1
c0224 t021 4 2 0 1
c0226 t022 4 2 0 1
c0227 t023 4 2 0 1
c0228 t024 4 2 0 1
c0229 t025 4 2 0 1
c0230 t026 4 2 0 1
c0231 t027 4 2 0 1
c0232 t028 4 2 0 1
c0233 t027 4 2 0 1
c0234 t029 4 2 0 1
c0235 t030 4 2 0 1
c0236 t031 4 2 0 1
c0237 t000 4 2 0 1
c0238 t032 4 2 0 1
c0239 t017 4 2 0 1
c0240 t033 4 2 0 1
c0241 t034 4 2 0 1
c0242 t035 4 2 0 1
c0243 t013 4 2 0 1
c0244 t036 4 2 0 1
c0245 t016 4 2 0 1
c0246 t012 4 2 0 1
c0247 t009 4 2 0 1
c0248 t037 4 2 0 1
c0249 t038 4 2 0 1
c0250 t036 4 2 0 1
c0251 t012 4 2 0 1

ROOMS:
r5 250 2
r6 300 2
r7 130 2
r8 30 2
r4 50 2
r2 50 1
r3 50 1
r9 128 3

CURRICULA:
q000 5 c0201 c0202 c0203 c0204 c0205 
q001 5 c0206 c0207 c0208 c0209 c0210 
q002 5 c0211 c0212 c0213 c0214 c0215 
q003 5 c0216 c0217 c0218 c0219 c0220 
q004 4 c0221 c0222 c0223 c0224 
q005 10 c0236 c0237 c0238 c0239 c0240 c0241 c0242 c0243 c0244 c0245 
q006 6 c0246 c0247 c0248 c0249 c0250 c0251 
q010 5 c0221 c0226 c0227 c0228 c0229 
q011 7 c0222 c0230 c0231 c0232 c0233 c0234 c0235 

UNAVAILABILITY_CONSTRAINTS:
c0201 0 0 
c0201 0 1 
c0201 0 2 
c0201 0 3 
c0201 0 4 
c0201 0 5 
c0201 0 6 
c0201 0 7 
c0201 0 8 
c0201 0 9 
c0201 0 10 
c0201 1 0 
c0201 1 1 
c0201 1 5 
c0201 1 6 
c0201 1 7 
c0201 1 8 
c0201 1 9 
c0201 1 10 
c0201 2 0 
c0201 2 1 
c0201 2 5 
c0201 2 6 
c0201 2 7 
c0201 2 8 
c0201 2 9 
c0201 2 10 
c0201 3 0 
c0201 3 1 
c0201 3 5 
c0201 3 6 
c0201 3 7 
c0201 3 8 
c0201 3 9 
c0201 3 10 
c0201 4 0 
c0201 4 1 
c0201 4 5 
c0201 4 6 
c0201 4 7 
c0201 4 8 
c0201 4 9 
c0201 4 10 
c0202 0 5 
c0202 0 6 
c0202 0 7 
c0202 0 8 
c0202 0 9 
c0202 0 10 
c0202 1 5 
c0202 1 6 
c0202 1 7 
c0202 1 8 
c0202 1 9 
c0202 1 10 
c0202 2 5 
c0202 2 6 
c0202 2 7 
c0202 2 8 
c0202 2 9 
c0202 2 10 
c0202 3 5 
c0202 3 6 
c0202 3 7 
c0202 3 8 
c0202 3 9 
c0202 3 10 
c0202 4 0 
c0202 4 1 
c0202 4 2 
c0202 4 3 
c0202 4 4 
c0202 4 5 
c0202 4 6 
c0202 4 7 
c0202 4 8 
c0202 4 9 
c0202 4 10 
c0203 0 6 
c0203 0 7 
c0203 0 8 
c0203 0 9 
c0203 0 10 
c0203 1 6 
c0203 1 7 
c0203 1 8 
c0203 1 9 
c0203 1 10 
c0203 2 6 
c0203 2 7 
c0203 2 8 
c0203 2 9 
c0203 2 10 
c0203 3 6 
c0203 3 7 
c0203 3 8 
c0203 3 9 
c0203 3 10 
c0203 4 6 
c0203 4 7 
c0203 4 8 
c0203 4 9 
c0203 4 10 
c0204 0 0 
c0204 0 1 
c0204 0 2 
c0204 0 3 
c0204 0 4 
c0204 0 5 
c0204 0 6 
c0204 0 7 
c0204 0 8 
c0204 0 9 
c0204 0 10 
c0204 1 6 
c0204 1 7 
c0204 1 8 
c0204 1 9 
c0204 1 10 
c0204 2 6 
c0204 2 7 
c0204 2 8 
c0204 2 9 
c0204 2 10 
c0204 3 6 
c0204 3 7 
c0204 3 8 
c0204 3 9 
c0204 3 10 
c0204 4 6 
c0204 4 7 
c0204 4 8 
c0204 4 9 
c0204 4 10 
c0205 0 0 
c0205 0 1 
c0205 0 2 
c0205 0 3 
c0205 0 4 
c0205 0 5 
c0205 0 6 
c0205 0 7 
c0205 0 8 
c0205 0 9 
c0205 0 10 
c0205 1 6 
c0205 1 7 
c0205 1 8 
c0205 1 9 
c0205 1 10 
c0205 2 0 
c0205 2 1 
c0205 2 6 
c0205 2 7 
c0205 2 8 
c0205 2 9 
c0205 2 10 
c0205 3 6 
c0205 3 7 
c0205 3 8 
c0205 3 9 
c0205 3 10 
c0205 4 6 
c0205 4 7 
c0205 4 8 
c0205 4 9 
c0205 4 10 
c0206 0 0 
c0206 0 1 
c0206 0 2 
c0206 0 3 
c0206 0 4 
c0206 0 5 
c0206 0 6 
c0206 0 7 
c0206 0 8 
c0206 0 9 
c0206 0 10 
c0206 1 0 
c0206 1 6 
c0206 1 7 
c0206 1 8 
c0206 1 9 
c0206 1 10 
c0206 2 0 
c0206 2 6 
c0206 2 7 
c0206 2 8 
c0206 2 9 
c0206 2 10 
c0206 3 0 
c0206 3 6 
c0206 3 7 
c0206 3 8 
c0206 3 9 
c0206 3 10 
c0206 4 0 
c0206 4 1 
c0206 4 6 
c0206 4 7 
c0206 4 8 
c0206 4 9 
c0206 4 10 
c0207 0 0 
c0207 0 1 
c0207 0 6 
c0207 0 7 
c0207 0 8 
c0207 0 9 
c0207 0 10 
c0207 1 0 
c0207 1 1 
c0207 1 6 
c0207 1 7 
c0207 1 8 
c0207 1 9 
c0207 1 10 
c0207 2 0 
c0207 2 1 
c0207 2 6 
c0207 2 7 
c0207 2 8 
c0207 2 9 
c0207 2 10 
c0207 3 0 
c0207 3 1 
c0207 3 6 
c0207 3 7 
c0207 3 8 
c0207 3 9 
c0207 3 10 
c0207 4 0 
c0207 4 1 
c0207 4 4 
c0207 4 6 
c0207 4 7 
c0207 4 8 
c0207 4 9 
c0207 4 10 
c0208 0 6 
c0208 0 7 
c0208 0 8 
c0208 0 9 
c0208 0 10 
c0208 1 6 
c0208 1 7 
c0208 1 8 
c0208 1 9 
c0208 1 10 
c0208 2 6 
c0208 2 7 
c0208 2 8 
c0208 2 9 
c0208 2 10 
c0208 3 6 
c0208 3 7 
c0208 3 8 
c0208 3 9 
c0208 3 10 
c0208 4 6 
c0208 4 7 
c0208 4 8 
c0208 4 9 
c0208 4 10 
c0209 0 0 
c0209 0 1 
c0209 0 2 
c0209 0 3 
c0209 0 4 
c0209 0 5 
c0209 0 6 
c0209 0 7 
c0209 0 8 
c0209 0 9 
c0209 0 10 
c0209 1 0 
c0209 1 1 
c0209 1 6 
c0209 1 7 
c0209 1 8 
c0209 1 9 
c0209 1 10 
c0209 2 0 
c0209 2 1 
c0209 2 2 
c0209 2 6 
c0209 2 7 
c0209 2 8 
c0209 2 9 
c0209 2 10 
c0209 3 0 
c0209 3 1 
c0209 3 6 
c0209 3 7 
c0209 3 8 
c0209 3 9 
c0209 3 10 
c0209 4 0 
c0209 4 1 
c0209 4 6 
c0209 4 7 
c0209 4 8 
c0209 4 9 
c0209 4 10 
c0210 0 0 
c0210 0 1 
c0210 0 2 
c0210 0 3 
c0210 0 4 
c0210 0 5 
c0210 0 6 
c0210 0 7 
c0210 0 8 
c0210 0 9 
c0210 0 10 
c0210 1 6 
c0210 1 7 
c0210 1 8 
c0210 1 9 
c0210 1 10 
c0210 2 6 
c0210 2 7 
c0210 2 8 
c0210 2 9 
c0210 2 10 
c0210 3 6 
c0210 3 7 
c0210 3 8 
c0210 3 9 
c0210 3 10 
c0210 4 6 
c0210 4 7 
c0210 4 8 
c0210 4 9 
c0210 4 10 
c0211 0 0 
c0211 0 1 
c0211 0 2 
c0211 0 3 
c0211 0 4 
c0211 0 5 
c0211 0 8 
c0211 0 9 
c0211 0 10 
c0211 1 0 
c0211 1 1 
c0211 1 2 
c0211 1 3 
c0211 1 4 
c0211 1 5 
c0211 1 8 
c0211 1 9 
c0211 1 10 
c0211 2 0 
c0211 2 1 
c0211 2 2 
c0211 2 3 
c0211 2 4 
c0211 2 5 
c0211 2 6 
c0211 2 7 
c0211 2 8 
c0211 2 9 
c0211 2 10 
c0211 3 0 
c0211 3 1 
c0211 3 2 
c0211 3 3 
c0211 3 4 
c0211 3 5 
c0211 3 6 
c0211 3 7 
c0211 3 8 
c0211 3 9 
c0211 3 10 
c0211 4 0 
c0211 4 1 
c0211 4 2 
c0211 4 3 
c0211 4 4 
c0211 4 5 
c0211 4 8 
c0211 4 9 
c0211 4 10 
c0212 0 0 
c0212 0 1 
c0212 0 2 
c0212 0 3 
c0212 0 4 
c0212 0 5 
c0212 1 0 
c0212 1 1 
c0212 1 2 
c0212 1 3 
c0212 1 4 
c0212 1 5 
c0212 2 0 
c0212 2 1 
c0212 2 2 
c0212 2 3 
c0212 2 4 
c0212 2 5 
c0212 3 0 
c0212 3 1 
c0212 3 2 
c0212 3 3 
c0212 3 4 
c0212 3 5 
c0212 4 0 
c0212 4 1 
c0212 4 2 
c0212 4 3 
c0212 4 4 
c0212 4 5 
c0213 0 0 
c0213 0 1 
c0213 0 2 
c0213 0 3 
c0213 0 4 
c0213 0 5 
c0213 1 0 
c0213 1 1 
c0213 1 2 
c0213 1 3 
c0213 1 4 
c0213 1 5 
c0213 2 0 
c0213 2 1 
c0213 2 2 
c0213 2 3 
c0213 2 4 
c0213 2 5 
c0213 3 0 
c0213 3 1 
c0213 3 2 
c0213 3 3 
c0213 3 4 
c0213 3 5 
c0213 4 0 
c0213 4 1 
c0213 4 2 
c0213 4 3 
c0213 4 4 
c0213 4 5 
c0214 0 0 
c0214 0 1 
c0214 0 2 
c0214 0 3 
c0214 0 4 
c0214 0 5 
c0214 1 0 
c0214 1 1 
c0214 1 2 
c0214 1 3 
c0214 1 4 
c0214 1 5 
c0214 2 0 
c0214 2 1 
c0214 2 2 
c0214 2 3 
c0214 2 4 
c0214 2 5 
c0214 3 0 
c0214 3 1 
c0214 3 2 
c0214 3 3 
c0214 3 4 
c0214 3 5 
c0214 4 0 
c0214 4 1 
c0214 4 2 
c0214 4 3 
c0214 4 4 
c0214 4 5 
c0215 0 0 
c0215 0 1 
c0215 0 2 
c0215 0 3 
c0215 0 4 
c0215 0 5 
c0215 0 9 
c0215 0 10 
c0215 1 0 
c0215 1 1 
c0215 1 2 
c0215 1 3 
c0215 1 4 
c0215 1 5 
c0215 1 9 
c0215 1 10 
c0215 2 0 
c0215 2 1 
c0215 2 2 
c0215 2 3 
c0215 2 4 
c0215 2 5 
c0215 2 9 
c0215 2 10 
c0215 3 0 
c0215 3 1 
c0215 3 2 
c0215 3 3 
c0215 3 4 
c0215 3 5 
c0215 3 9 
c0215 3 10 
c0215 4 0 
c0215 4 1 
c0215 4 2 
c0215 4 3 
c0215 4 4 
c0215 4 5 
c0215 4 9 
c0215 4 10 
c0218 0 0 
c0218 0 1 
c0218 0 2 
c0218 0 3 
c0218 0 4 
c0218 0 5 
c0218 0 6 
c0218 4 0 
c0218 4 1 
c0218 4 2 
c0218 4 3 
c0220 0 4 
c0220 1 4 
c0220 2 2 
c0220 2 4 
c0220 2 6 
c0220 3 2 
c0220 3 4 
c0220 3 6 
c0220 4 2 
c0220 4 4 
c0220 4 6 
c0221 0 0 
c0221 0 1 
c0221 0 2 
c0221 0 3 
c0221 0 4 
c0221 0 5 
c0221 0 6 
c0221 0 7 
c0221 0 8 
c0221 0 9 
c0221 0 10 
c0221 1 0 
c0221 1 1 
c0221 1 2 
c0221 1 3 
c0221 1 4 
c0221 1 5 
c0221 2 0 
c0221 2 1 
c0221 2 2 
c0221 2 3 
c0221 2 4 
c0221 2 5 
c0221 3 0 
c0221 3 1 
c0221 3 2 
c0221 3 3 
c0221 3 4 
c0221 3 5 
c0221 4 0 
c0221 4 1 
c0221 4 2 
c0221 4 3 
c0221 4 4 
c0221 4 5 
c0221 4 6 
c0221 4 7 
c0221 4 8 
c0221 4 9 
c0221 4 10 
c0224 0 0 
c0224 0 1 
c0224 0 2 
c0224 0 3 
c0224 0 7 
c0224 0 8 
c0224 0 9 
c0224 0 10 
c0224 1 0 
c0224 1 1 
c0224 1 2 
c0224 1 3 
c0224 1 7 
c0224 1 8 
c0224 1 9 
c0224 1 10 
c0224 2 0 
c0224 2 1 
c0224 2 2 
c0224 2 3 
c0224 2 7 
c0224 2 8 
c0224 2 9 
c0224 2 10 
c0224 3 0 
c0224 3 1 
c0224 3 2 
c0224 3 3 
c0224 3 7 
c0224 3 8 
c0224 3 9 
c0224 3 10 
c0224 4 0 
c0224 4 1 
c0224 4 2 
c0224 4 3 
c0224 4 4 
c0224 4 5 
c0224 4 6 
c0224 4 7 
c0224 4 8 
c0224 4 9 
c0224 4 10 
c0227 0 1 
c0227 0 2 
c0227 0 10 
c0227 1 10 
c0227 2 10 
c0227 3 8 
c0227 3 10 
c0227 4 6 
c0227 4 7 
c0227 4 8 
c0227 4 9 
c0227 4 10 
c0228 0 0 
c0228 1 0 
c0228 2 0 
c0228 3 0 
c0228 3 7 
c0228 3 8 
c0228 3 9 
c0228 4 0 
c0229 0 10 
c0229 1 10 
c0229 2 10 
c0229 3 10 
c0229 4 4 
c0229 4 5 
c0229 4 6 
c0229 4 7 
c0229 4 8 
c0229 4 9 
c0229 4 10 
c0230 0 8 
c0230 0 10 
c0230 1 8 
c0230 1 10 
c0230 2 6 
c0230 2 8 
c0230 2 10 
c0230 3 8 
c0230 3 10 
c0230 4 8 
c0230 4 10 
c0231 0 0 
c0231 0 1 
c0231 0 2 
c0231 0 3 
c0231 0 4 
c0231 0 5 
c0231 0 6 
c0231 0 7 
c0231 0 8 
c0231 0 9 
c0231 0 10 
c0231 1 0 
c0231 1 1 
c0231 1 2 
c0231 1 3 
c0231 1 4 
c0231 1 5 
c0231 1 10 
c0231 2 0 
c0231 2 1 
c0231 2 2 
c0231 2 3 
c0231 2 4 
c0231 2 5 
c0231 2 10 
c0231 3 0 
c0231 3 1 
c0231 3 2 
c0231 3 3 
c0231 3 4 
c0231 3 5 
c0231 3 6 
c0231 3 7 
c0231 3 8 
c0231 3 9 
c0231 3 10 
c0231 4 0 
c0231 4 1 
c0231 4 2 
c0231 4 3 
c0231 4 4 
c0231 4 5 
c0231 4 6 
c0231 4 7 
c0231 4 8 
c0231 4 9 
c0231 4 10 
c0233 0 0 
c0233 0 10 
c0233 1 0 
c0233 1 10 
c0233 2 0 
c0233 2 10 
c0233 3 0 
c0233 3 10 
c0233 4 0 
c0233 4 10 
c0235 0 0 
c0235 0 1 
c0235 0 2 
c0235 0 3 
c0235 1 0 
c0235 1 1 
c0235 1 2 
c0235 2 0 
c0235 2 1 
c0235 2 2 
c0235 3 0 
c0235 3 1 
c0235 3 2 
c0235 4 0 
c0235 4 1 
c0235 4 2 
c0236 0 0 
c0236 0 1 
c0236 0 2 
c0236 0 3 
c0236 0 4 
c0236 0 5 
c0237 0 0 
c0237 0 1 
c0237 0 2 
c0237 0 3 
c0237 0 4 
c0237 0 5 
c0237 0 6 
c0237 0 7 
c0237 0 8 
c0237 0 9 
c0237 0 10 
c0237 1 0 
c0237 1 1 
c0237 1 5 
c0237 1 6 
c0237 1 10 
c0237 2 0 
c0237 2 1 
c0237 2 5 
c0237 2 6 
c0237 2 10 
c0237 3 0 
c0237 3 1 
c0237 3 5 
c0237 3 6 
c0237 3 10 
c0237 4 0 
c0237 4 1 
c0237 4 5 
c0237 4 6 
c0237 4 9 
c0237 4 10 
c0238 0 0 
c0238 0 1 
c0238 0 2 
c0238 0 3 
c0238 0 4 
c0238 0 5 
c0239 0 0 
c0239 0 1 
c0239 0 2 
c0239 0 3 
c0239 0 4 
c0239 0 5 
c0240 0 0 
c0240 0 1 
c0240 0 2 
c0240 0 3 
c0240 0 4 
c0240 0 5 
c0240 0 6 
c0240 0 7 
c0240 0 8 
c0240 0 9 
c0240 0 10 
c0240 1 0 
c0240 1 1 
c0240 1 4 
c0240 1 5 
c0240 1 6 
c0240 1 7 
c0240 1 8 
c0240 1 9 
c0240 1 10 
c0240 2 0 
c0240 2 1 
c0240 2 4 
c0240 2 5 
c0240 2 6 
c0240 2 7 
c0240 2 8 
c0240 2 9 
c0240 2 10 
c0240 3 0 
c0240 3 1 
c0240 3 4 
c0240 3 5 
c0240 3 6 
c0240 3 7 
c0240 3 8 
c0240 3 9 
c0240 3 10 
c0240 4 0 
c0240 4 1 
c0240 4 4 
c0240 4 5 
c0240 4 6 
c0240 4 7 
c0240 4 8 
c0240 4 9 
c0240 4 10 
c0241 0 0 
c0241 0 1 
c0241 0 2 
c0241 0 3 
c0241 0 4 
c0241 0 5 
c0242 0 0 
c0242 0 1 
c0242 0 2 
c0242 0 3 
c0242 0 4 
c0242 0 5 
c0242 0 6 
c0242 0 7 
c0242 0 8 
c0242 1 0 
c0242 1 1 
c0242 1 2 
c0242 1 3 
c0242 1 4 
c0242 1 5 
c0242 1 6 
c0242 1 7 
c0242 1 8 
c0242 2 0 
c0242 2 1 
c0242 2 2 
c0242 2 3 
c0242 2 4 
c0242 2 5 
c0242 2 6 
c0242 2 7 
c0242 2 8 
c0242 3 0 
c0242 3 1 
c0242 3 2 
c0242 3 3 
c0242 3 4 
c0242 3 5 
c0242 3 6 
c0242 3 7 
c0242 3 8 
c0242 4 0 
c0242 4 1 
c0242 4 2 
c0242 4 3 
c0242 4 4 
c0242 4 5 
c0242 4 6 
c0242 4 7 
c0242 4 8 
c0243 0 0 
c0243 0 1 
c0243 0 2 
c0243 0 5 
c0243 0 9 
c0243 0 10 
c0243 1 9 
c0243 1 10 
c0243 2 9 
c0243 2 10 
c0243 3 9 
c0243 3 10 
c0243 4 9 
c0243 4 10 
c0244 0 0 
c0244 0 1 
c0244 0 2 
c0244 0 3 
c0244 0 4 
c0244 0 5 
c0244 0 7 
c0244 0 8 
c0244 0 9 
c0244 0 10 
c0244 1 0 
c0244 1 7 
c0244 1 8 
c0244 1 9 
c0244 1 10 
c0244 2 0 
c0244 2 7 
c0244 2 8 
c0244 2 9 
c0244 2 10 
c0244 3 0 
c0244 3 7 
c0244 3 8 
c0244 3 9 
c0244 3 10 
c0244 4 0 
c0244 4 1 
c0244 4 2 
c0244 4 3 
c0244 4 4 
c0244 4 5 
c0244 4 6 
c0244 4 7 
c0244 4 8 
c0244 4 9 
c0244 4 10 
c0245 0 0 
c0245 0 1 
c0245 0 2 
c0245 0 3 
c0245 0 4 
c0245 0 5 
c0245 0 6 
c0245 0 8 
c0245 0 9 
c0245 0 10 
c0245 1 0 
c0245 1 1 
c0245 1 8 
c0245 1 9 
c0245 1 10 
c0245 2 0 
c0245 2 1 
c0245 2 8 
c0245 2 9 
c0245 2 10 
c0245 3 0 
c0245 3 1 
c0245 3 8 
c0245 3 9 
c0245 3 10 
c0245 4 0 
c0245 4 1 
c0245 4 2 
c0245 4 3 
c0245 4 8 
c0245 4 9 
c0245 4 10 
c0246 0 0 
c0246 0 1 
c0246 0 2 
c0246 0 3 
c0246 0 4 
c0246 0 5 
c0247 0 0 
c0247 0 1 
c0247 0 2 
c0247 0 3 
c0247 0 4 
c0247 0 5 
c0247 0 8 
c0247 0 9 
c0247 0 10 
c0247 1 8 
c0247 1 9 
c0247 1 10 
c0247 2 0 
c0247 2 1 
c0247 2 2 
c0247 2 3 
c0247 2 4 
c0247 2 6 
c0247 2 7 
c0247 2 8 
c0247 2 9 
c0247 2 10 
c0247 3 0 
c0247 3 1 
c0247 3 2 
c0247 3 3 
c0247 3 4 
c0247 3 6 
c0247 3 7 
c0247 3 8 
c0247 3 9 
c0247 3 10 
c0247 4 8 
c0247 4 9 
c0247 4 10 
c0248 0 0 
c0248 0 1 
c0248 0 2 
c0248 0 3 
c0248 0 4 
c0248 0 5 
c0248 0 6 
c0248 0 7 
c0248 0 10 
c0248 1 2 
c0248 1 3 
c0248 1 4 
c0248 1 5 
c0248 1 6 
c0248 1 7 
c0248 1 10 
c0248 2 0 
c0248 2 1 
c0248 2 2 
c0248 2 3 
c0248 2 4 
c0248 2 5 
c0248 2 6 
c0248 2 7 
c0248 2 10 
c0248 3 0 
c0248 3 1 
c0248 3 2 
c0248 3 3 
c0248 3 4 
c0248 3 5 
c0248 3 6 
c0248 3 7 
c0248 3 10 
c0248 4 0 
c0248 4 1 
c0248 4 2 
c0248 4 3 
c0248 4 4 
c0248 4 5 
c0248 4 6 
c0248 4 7 
c0248 4 8 
c0248 4 9 
c0248 4 10 
c0249 0 0 
c0249 0 1 
c0249 0 2 
c0249 0 3 
c0249 0 4 
c0249 0 5 
c0249 1 0 
c0249 2 0 
c0249 3 0 
c0249 4 0 
c0250 0 0 
c0250 0 1 
c0250 0 2 
c0250 0 3 
c0250 0 4 
c0250 0 5 
c0250 0 7 
c0250 0 8 
c0250 0 9 
c0250 0 10 
c0250 1 0 
c0250 1 7 
c0250 1 8 
c0250 1 9 
c0250 1 10 
c0250 2 0 
c0250 2 7 
c0250 2 8 
c0250 2 9 
c0250 2 10 
c0250 3 0 
c0250 3 7 
c0250 3 8 
c0250 3 9 
c0250 3 10 
c0250 4 0 
c0250 4 1 
c0250 4 2 
c0250 4 3 
c0250 4 4 
c0250 4 5 
c0250 4 6 
c0250 4 7 
c0250 4 8 
c0250 4 9 
c0250 4 10 
c0251 0 0 
c0251 0 1 
c0251 0 2 
c0251 0 3 
c0251 0 4 
c0251 0 5 

ROOM_CONSTRAINTS:
c0201 r8
c0202 r8
c0203 r8
c0204 r8
c0205 r8
c0206 r8
c0207 r8
c0208 r8
c0209 r8
c0210 r8
c0211 r8
c0212 r8
c0213 r8
c0214 r8
c0215 r8
c0216 r8
c0217 r8
c0218 r8
c0219 r8
c0220 r8
c0221 r7
c0221 r8
c0221 r4
c0221 r2
c0221 r3
c0222 r8
c0223 r8
c0224 r8
c0226 r8
c0227 r8
c0228 r8
c0229 r8
c0230 r8
c0231 r8
c0232 r8
c0235 r8
c0236 r8
c0237 r8
c0238 r8
c0239 r8
c0240 r8
c0241 r8
c0242 r8
c0243 r8
c0244 r8
c0245 r8
c0246 r8
c0247 r8
c0248 r8
c0249 r8
c0250 r8
c0251 r8

END.